Route #1: 1 22 2 21 16 38 5 17 4 11 32 1 
Route #2: 1 1 3 20 35 36 28 31 8 6 1 
Route #3: 1 27 12 19 13 14 23 7 26 1 
Route #4: 1 29 34 30 10 39 33 15 37 9 24 1 
Route #5: 1 18 25 1 

Cost 632.665
Time 0.3696


 * Another infos *

 Iterations: 40 Time: 0.3696 sec - 0.0062 min - 0.0001 horas
0.0000 h 0.0062 min
Problem dimension: 40
